 vasp.5.4.4.18Apr17-6-g9f103f2a35 (build Nov 28 2019 14:00:02) complex

 executed on             LinuxIFC date 2024.03.12  11:24:08

 INCAR:
 POTCAR:    PAW_PBE Si 05Jan2001
 POTCAR:    PAW_PBE Si 05Jan2001
   VRHFIN =Si: s2p2

   TITEL  = PAW_PBE Si 05Jan2001
   POMASS =   28.085; ZVAL   =    4.000    mass and valenz
   ENMAX  =  245.345; ENMIN  =  184.009 eV

  PAW_PBE Si 05Jan2001                  :

 POSCAR: system Si
  positions in direct lattice
  velocities in cartesian coordinates
 exchange correlation table for  LEXCH =        8
   RHO(1)=    0.500       N(1)  =     2000
   RHO(2)=  100.500       N(2)  =     4000

 ion  position               nearest neighbor table
   1  0.000  0.000  0.000-   2 2.37   2 2.37   2 2.37   2 2.37
   2  0.250  0.250  0.250-   1 2.37   1 2.37   1 2.37   1 2.37

  LATTYP: Found a face centered cubic cell.
 ALAT       =     5.4715495487

  Lattice vectors:

 A1 = (   2.7357747743,   2.7357747743,   0.0000000000)
 A2 = (   0.0000000000,   2.7357747743,   2.7357747743)
 A3 = (   2.7357747743,   0.0000000000,   2.7357747743)

Analysis of symmetry for initial positions (statically):
 Subroutine PRICEL returns:
 Original cell was already a primitive cell.

 Routine SETGRP: Setting up the symmetry group for a
 face centered cubic supercell.

 Subroutine GETGRP returns: Found 48 space group operations
 (whereof 24 operations were pure point group operations)
 out of a pool of 48 trial point group operations.

The static configuration has the point symmetry T_d .
 The point group associated with its full space group is O_h .

Analysis of symmetry for dynamics (positions and initial velocities):
 Subroutine PRICEL returns:
 Original cell was already a primitive cell.

 Routine SETGRP: Setting up the symmetry group for a
 face centered cubic supercell.

 Subroutine GETGRP returns: Found 48 space group operations
 (whereof 24 operations were pure point group operations)
 out of a pool of 48 trial point group operations.

The dynamic configuration has the point symmetry T_d .
 The point group associated with its full space group is O_h .

 Subroutine INISYM returns: Found 48 space group operations
 (whereof 24 operations are pure point group operations),
 and found     1 'primitive' translations

 KPOINTS: k-points

Automatic generation of k-mesh.
Space group operators:
 irot       det(A)        alpha          n_x          n_y          n_z        tau_x        tau_y        tau_z
    1     1.000000     0.000000     1.000000     0.000000     0.000000     0.000000     0.000000     0.000000
    2     1.000000   120.000000    -0.577350    -0.577350    -0.577350     0.000000     0.000000     0.000000
    3     1.000000   120.000000     0.577350     0.577350     0.577350     0.000000     0.000000     0.000000
    4    -1.000000    90.000000     0.000000    -1.000000     0.000000     0.000000     0.000000     0.000000
    5    -1.000000   180.000000     0.707107     0.707107     0.000000     0.000000     0.000000     0.000000
    6    -1.000000    90.000000     1.000000     0.000000     0.000000     0.000000     0.000000     0.000000
    7     1.000000   180.000000     0.000000     1.000000     0.000000     0.000000     0.000000     0.000000
    8     1.000000   120.000000     0.577350     0.577350    -0.577350     0.000000     0.000000     0.000000
    9     1.000000   120.000000     0.577350    -0.577350    -0.577350     0.000000     0.000000     0.000000
   10    -1.000000    90.000000     0.000000     1.000000     0.000000     0.000000     0.000000     0.000000
   11    -1.000000    90.000000     0.000000     0.000000    -1.000000     0.000000     0.000000     0.000000
   12    -1.000000   180.000000     0.000000     0.707107     0.707107     0.000000     0.000000     0.000000
   13     1.000000   120.000000    -0.577350     0.577350     0.577350     0.000000     0.000000     0.000000
   14     1.000000   120.000000    -0.577350     0.577350    -0.577350     0.000000     0.000000     0.000000
   15     1.000000   180.000000     0.000000     0.000000     1.000000     0.000000     0.000000     0.000000
   16    -1.000000    90.000000    -1.000000     0.000000     0.000000     0.000000     0.000000     0.000000
   17    -1.000000   180.000000     0.707107     0.000000     0.707107     0.000000     0.000000     0.000000
   18    -1.000000    90.000000     0.000000     0.000000     1.000000     0.000000     0.000000     0.000000
   19     1.000000   120.000000    -0.577350    -0.577350     0.577350     0.000000     0.000000     0.000000
   20     1.000000   180.000000     1.000000     0.000000     0.000000     0.000000     0.000000     0.000000
   21     1.000000   120.000000     0.577350    -0.577350     0.577350     0.000000     0.000000     0.000000
   22    -1.000000   180.000000     0.707107    -0.707107     0.000000     0.000000     0.000000     0.000000
   23    -1.000000   180.000000     0.707107     0.000000    -0.707107     0.000000     0.000000     0.000000
   24    -1.000000   180.000000     0.000000    -0.707107     0.707107     0.000000     0.000000     0.000000
   25    -1.000000     0.000000     1.000000     0.000000     0.000000     0.250000     0.250000     0.250000
   26    -1.000000   120.000000    -0.577350    -0.577350    -0.577350     0.250000     0.250000     0.250000
   27    -1.000000   120.000000     0.577350     0.577350     0.577350     0.250000     0.250000     0.250000
   28     1.000000    90.000000     0.000000    -1.000000     0.000000     0.250000     0.250000     0.250000
   29     1.000000   180.000000     0.707107     0.707107     0.000000     0.250000     0.250000     0.250000
   30     1.000000    90.000000     1.000000     0.000000     0.000000     0.250000     0.250000     0.250000
   31    -1.000000   180.000000     0.000000     1.000000     0.000000     0.250000     0.250000     0.250000
   32    -1.000000   120.000000     0.577350     0.577350    -0.577350     0.250000     0.250000     0.250000
   33    -1.000000   120.000000     0.577350    -0.577350    -0.577350     0.250000     0.250000     0.250000
   34     1.000000    90.000000     0.000000     1.000000     0.000000     0.250000     0.250000     0.250000
   35     1.000000    90.000000     0.000000     0.000000    -1.000000     0.250000     0.250000     0.250000
   36     1.000000   180.000000     0.000000     0.707107     0.707107     0.250000     0.250000     0.250000
   37    -1.000000   120.000000    -0.577350     0.577350     0.577350     0.250000     0.250000     0.250000
   38    -1.000000   120.000000    -0.577350     0.577350    -0.577350     0.250000     0.250000     0.250000
   39    -1.000000   180.000000     0.000000     0.000000     1.000000     0.250000     0.250000     0.250000
   40     1.000000    90.000000    -1.000000     0.000000     0.000000     0.250000     0.250000     0.250000
   41     1.000000   180.000000     0.707107     0.000000     0.707107     0.250000     0.250000     0.250000
   42     1.000000    90.000000     0.000000     0.000000     1.000000     0.250000     0.250000     0.250000
   43    -1.000000   120.000000    -0.577350    -0.577350     0.577350     0.250000     0.250000     0.250000
   44    -1.000000   180.000000     1.000000     0.000000     0.000000     0.250000     0.250000     0.250000
   45    -1.000000   120.000000     0.577350    -0.577350     0.577350     0.250000     0.250000     0.250000
   46     1.000000   180.000000     0.707107    -0.707107     0.000000     0.250000     0.250000     0.250000
   47     1.000000   180.000000     0.707107     0.000000    -0.707107     0.250000     0.250000     0.250000
   48     1.000000   180.000000     0.000000    -0.707107     0.707107     0.250000     0.250000     0.250000

 Subroutine IBZKPT returns following result:

 Found     20 irreducible k-points:

 Following reciprocal coordinates:
            Coordinates               Weight
  0.000000  0.000000  0.000000      1.000000
  0.142857  0.000000  0.000000      8.000000
  0.285714  0.000000  0.000000      8.000000
  0.428571  0.000000  0.000000      8.000000
  0.142857  0.142857  0.000000      6.000000
  0.285714  0.142857  0.000000     24.000000
  0.428571  0.142857  0.000000     24.000000
 -0.428571  0.142857  0.000000     24.000000
 -0.285714  0.142857  0.000000     24.000000
 -0.142857  0.142857  0.000000     12.000000
  0.285714  0.285714  0.000000      6.000000
  0.428571  0.285714  0.000000     24.000000
 -0.428571  0.285714  0.000000     24.000000
 -0.285714  0.285714  0.000000     12.000000
  0.428571  0.428571  0.000000      6.000000
 -0.428571  0.428571  0.000000     12.000000
  0.428571  0.285714  0.142857     24.000000
 -0.428571  0.285714  0.142857     48.000000
 -0.428571  0.428571  0.142857     24.000000
 -0.285714  0.428571  0.142857     24.000000

 Following cartesian coordinates:
            Coordinates               Weight
  0.000000  0.000000  0.000000      1.000000
  0.141511  0.141511 -0.141511      8.000000
  0.283022  0.283022 -0.283022      8.000000
  0.424534  0.424534 -0.424534      8.000000
  0.000000  0.283022  0.000000      6.000000
  0.141511  0.424534 -0.141511     24.000000
  0.283022  0.566045 -0.283022     24.000000
 -0.566045 -0.283022  0.566045     24.000000
 -0.424534 -0.141511  0.424534     24.000000
 -0.283022  0.000000  0.283022     12.000000
  0.000000  0.566045  0.000000      6.000000
  0.141511  0.707556 -0.141511     24.000000
 -0.707556 -0.141511  0.707556     24.000000
 -0.566045  0.000000  0.566045     12.000000
  0.000000  0.849067  0.000000      6.000000
 -0.849067  0.000000  0.849067     12.000000
  0.283022  0.566045  0.000000     24.000000
 -0.566045 -0.283022  0.849067     48.000000
 -0.707556 -0.141511  0.990579     24.000000
 -0.566045  0.000000  0.849067     24.000000

 TETIRR: Found     58 inequivalent tetrahedra from     2058

 SYSTEM =  unknown system
 POSCAR =  system Si

 Startparameter for this run:
   NWRITE =      2    write-flag & timer
   PREC   = accura    normal or accurate (medium, high low for compatibility)
   ISTART =      0    job   : 0-new  1-cont  2-samecut
   ICHARG =     11    charge: 1-file 2-atom 10-const
   ISPIN  =      1    spin polarized calculation?
   LNONCOLLINEAR =      F non collinear calculations
   LSORBIT =      F    spin-orbit coupling
   INIWAV =      1    electr: 0-lowe 1-rand  2-diag
   LASPH  =      F    aspherical Exc in radial PAW
   METAGGA=      F    non-selfconsistent MetaGGA calc.

 Electronic Relaxation 1
   ENCUT  =  500.0 eV  36.75 Ry    6.06 a.u.   7.05  7.05  7.05*2*pi/ulx,y,z
   ENINI  =  500.0     initial cutoff
   ENAUG  =  322.1 eV  augmentation charge cutoff
   NELM   =    200;   NELMIN=  2; NELMDL=  0     # of ELM steps
   EDIFF  = 0.1E-03   stopping-criterion for ELM
   LREAL  =      F    real-space projection
   NLSPLINE    = F    spline interpolate recip. space projectors
   LCOMPAT=      F    compatible to vasp.4.4
   GGA_COMPAT  = T    GGA compatible to vasp.4.4-vasp.4.6
   LMAXPAW     = -100 max onsite density
   LMAXMIX     =    2 max onsite mixed and CHGCAR
   VOSKOWN=      0    Vosko Wilk Nusair interpolation
   ROPT   =    0.00000
 Ionic relaxation
   EDIFFG = 0.1E-02   stopping-criterion for IOM
   NSW    =      0    number of steps for IOM
   NBLOCK =      1;   KBLOCK =      1    inner block; outer block
   IBRION =     -1    ionic relax: 0-MD 1-quasi-New 2-CG
   NFREE  =      0    steps in history (QN), initial steepest desc. (CG)
   ISIF   =      2    stress and relaxation
   IWAVPR =     10    prediction:  0-non 1-charg 2-wave 3-comb
   ISYM   =      2    0-nonsym 1-usesym 2-fastsym
   LCORR  =      T    Harris-Foulkes like correction to forces

   POTIM  = 0.5000    time-step for ionic-motion
   TEIN   =    0.0    initial temperature
   TEBEG  =    0.0;   TEEND  =   0.0 temperature during run
   SMASS  =  -3.00    Nose mass-parameter (am)
   estimated Nose-frequenzy (Omega)   =  0.10E-29 period in steps =****** mass=  -0.342E-27a.u.
   SCALEE = 1.0000    scale energy and forces
   NPACO  =    256;   APACO  = 16.0  distance and # of slots for P.C.
   PSTRESS=    0.0 pullay stress

  Mass of Ions in am
   POMASS =  28.09
  Ionic Valenz
   ZVAL   =   4.00
  Atomic Wigner-Seitz radii
  virtual crystal weights
   VCA    =   1.00
   NELECT =       8.0000    total number of electrons
   NUPDOWN=      -1.0000    fix difference up-down

 DOS related values:
   EMIN   =  10.00;   EMAX   =-10.00  energy-range for DOS
   EFERMI =   0.00
   ISMEAR =    -5;   SIGMA  =   0.20  broadening in eV -4-tet -1-fermi 0-gaus

 Electronic relaxation 2 (details)
   IALGO  =     38    algorithm
   LDIAG  =      T    sub-space diagonalisation (order eigenvalues)
   LSUBROT=      F    optimize rotation matrix (better conditioning)
   TURBO    =      0    0=normal 1=particle mesh
   IRESTART =      0    0=no restart 2=restart with 2 vectors
   NREBOOT  =      0    no. of reboots
   NMIN     =      0    reboot dimension
   EREF     =   0.00    reference energy to select bands
   IMIX   =      4    mixing-type and parameters
     AMIX     =   0.40;   BMIX     =  1.00
     AMIX_MAG =   1.60;   BMIX_MAG =  1.00
     AMIN     =   0.10
     WC   =   100.;   INIMIX=   1;  MIXPRE=   1;  MAXMIX= -45

 Intra band minimization:
   WEIMIN = 0.0000     energy-eigenvalue tresh-hold
   EBREAK =  0.31E-05  absolut break condition
   DEPER  =   0.30     relativ break condition

   TIME   =   0.40     timestep for ELM

  volume/ion in A,a.u.               =      20.48       138.18
  Fermi-wavevector in a.u.,A,eV,Ry     =   0.949907  1.795064 12.276858  0.902324
  Thomas-Fermi vector in A             =   2.078234

 Write flags
   LWAVE        =      F    write WAVECAR
   LDOWNSAMPLE  =      F    k-point downsampling of WAVECAR
   LCHARG       =      T    write CHGCAR
   LVTOT        =      F    write LOCPOT, total local potential
   LVHAR        =      F    write LOCPOT, Hartree potential only
   LELF         =      F    write electronic localiz. function (ELF)
   LORBIT       =     11    0 simple, 1 ext, 2 COOP (PROOUT), +10 PAW based schemes

 Dipole corrections
   LMONO  =      F    monopole corrections only (constant potential shift)
   LDIPOL =      F    correct potential (dipole corrections)
   IDIPOL =      0    1-x, 2-y, 3-z, 4-all directions
   EPSILON=  1.0000000 bulk dielectric constant

 Exchange correlation treatment:
   GGA     =    --    GGA type
   VOSKOWN=      0    Vosko Wilk Nusair interpolation
   LHFCALC =     F    Hartree Fock is set to
   LHFONE  =     F    Hartree Fock one center treatment
   AEXX    =    0.0000 exact exchange contribution

 Linear response parameters
   LEPSILON=     F    determine dielectric tensor
   LRPA    =     F    only Hartree local field effects (RPA)
   LNABLA  =     F    use nabla operator in PAW spheres
   LVEL    =     F    velocity operator in full k-point grid
   LINTERFAST=   F  fast interpolation
   KINTER  =     0    interpolate to denser k-point grid
   CSHIFT  =0.1000    complex shift for real part using Kramers Kronig
   OMEGAMAX=  -1.0    maximum frequency
   DEG_THRESHOLD= 0.2000000E-02 threshold for treating states as degnerate
   RTIME   =   -0.100 relaxation time in fs
  (WPLASMAI=    0.000 imaginary part of plasma frequency in eV, 0.658/RTIME)
   DFIELD  = 0.0000000 0.0000000 0.0000000 field for delta impulse in time

 Orbital magnetization related:
   ORBITALMAG=     F  switch on orbital magnetization
   LCHIMAG   =     F  perturbation theory with respect to B field
   DQ        =  0.001000  dq finite difference perturbation B field
   LLRAUG    =     F  two centre corrections for induced B field

 Static calculation
 charge density and potential remain constant during run
 non-spin polarized calculation
 Variant of blocked Davidson
 Davidson routine will perform the subspace rotation
 perform sub-space diagonalisation
    after iterative eigenvector-optimisation
 no mixing
 using additional bands            4
 reciprocal scheme for non local part
 use partial core corrections
 calculate Harris-corrections to forces
   (improved forces if not selfconsistent)
 use gradient corrections
 WARNING: stress and forces are not correct
  (second derivative of E(xc) not defined)
 use of overlap-Matrix (Vanderbilt PP)
 Fermi weights with tetrahedron method with Bloechl corrections

  energy-cutoff  :      500.00
  volume of cell :       40.95
      direct lattice vectors                 reciprocal lattice vectors
     2.735774774  2.735774774  0.000000000     0.182763583  0.182763583 -0.182763583
     0.000000000  2.735774774  2.735774774    -0.182763583  0.182763583  0.182763583
     2.735774774  0.000000000  2.735774774     0.182763583 -0.182763583  0.182763583

  length of vectors
     3.868969789  3.868969789  3.868969789     0.316555812  0.316555812  0.316555812

 k-points in units of 2pi/SCALE and weight: k-points
   0.00000000  0.00000000  0.00000000       0.003
   0.14151123  0.14151123 -0.14151123       0.023
   0.28302246  0.28302246 -0.28302246       0.023
   0.42453369  0.42453369 -0.42453369       0.023
   0.00000000  0.28302246  0.00000000       0.017
   0.14151123  0.42453369 -0.14151123       0.070
   0.28302246  0.56604493 -0.28302246       0.070
  -0.56604493 -0.28302246  0.56604493       0.070
  -0.42453369 -0.14151123  0.42453369       0.070
  -0.28302246  0.00000000  0.28302246       0.035
   0.00000000  0.56604493  0.00000000       0.017
   0.14151123  0.70755616 -0.14151123       0.070
  -0.70755616 -0.14151123  0.70755616       0.070
  -0.56604493  0.00000000  0.56604493       0.035
   0.00000000  0.84906739  0.00000000       0.017
  -0.84906739  0.00000000  0.84906739       0.035
   0.28302246  0.56604493  0.00000000       0.070
  -0.56604493 -0.28302246  0.84906739       0.140
  -0.70755616 -0.14151123  0.99057862       0.070
  -0.56604493  0.00000000  0.84906739       0.070

 k-points in reciprocal lattice and weights: k-points
   0.00000000  0.00000000  0.00000000       0.003
   0.14285714  0.00000000  0.00000000       0.023
   0.28571429  0.00000000  0.00000000       0.023
   0.42857143  0.00000000  0.00000000       0.023
   0.14285714  0.14285714  0.00000000       0.017
   0.28571429  0.14285714  0.00000000       0.070
   0.42857143  0.14285714  0.00000000       0.070
  -0.42857143  0.14285714  0.00000000       0.070
  -0.28571429  0.14285714  0.00000000       0.070
  -0.14285714  0.14285714  0.00000000       0.035
   0.28571429  0.28571429  0.00000000       0.017
   0.42857143  0.28571429  0.00000000       0.070
  -0.42857143  0.28571429  0.00000000       0.070
  -0.28571429  0.28571429  0.00000000       0.035
   0.42857143  0.42857143  0.00000000       0.017
  -0.42857143  0.42857143  0.00000000       0.035
   0.42857143  0.28571429  0.14285714       0.070
  -0.42857143  0.28571429  0.14285714       0.140
  -0.42857143  0.42857143  0.14285714       0.070
  -0.28571429  0.42857143  0.14285714       0.070

 position of ions in fractional coordinates (direct lattice)
   0.00000000  0.00000000  0.00000000
   0.25000000  0.25000000  0.25000000

 position of ions in cartesian coordinates  (Angst):
   0.00000000  0.00000000  0.00000000
   1.36788739  1.36788739  1.36788739

 k-point  1 :   0.0000 0.0000 0.0000  plane waves:    1037
 k-point  2 :   0.1429 0.0000 0.0000  plane waves:    1025
 k-point  3 :   0.2857 0.0000 0.0000  plane waves:    1035
 k-point  4 :   0.4286 0.0000 0.0000  plane waves:    1038
 k-point  5 :   0.1429 0.1429 0.0000  plane waves:    1018
 k-point  6 :   0.2857 0.1429 0.0000  plane waves:    1027
 k-point  7 :   0.4286 0.1429 0.0000  plane waves:    1045
 k-point  8 :  -0.4286 0.1429 0.0000  plane waves:    1047
 k-point  9 :  -0.2857 0.1429 0.0000  plane waves:    1040
 k-point 10 :  -0.1429 0.1429 0.0000  plane waves:    1035
 k-point 11 :   0.2857 0.2857 0.0000  plane waves:    1030
 k-point 12 :   0.4286 0.2857 0.0000  plane waves:    1042
 k-point 13 :  -0.4286 0.2857 0.0000  plane waves:    1040
 k-point 14 :  -0.2857 0.2857 0.0000  plane waves:    1033
 k-point 15 :   0.4286 0.4286 0.0000  plane waves:    1042
 k-point 16 :  -0.4286 0.4286 0.0000  plane waves:    1037
 k-point 17 :   0.4286 0.2857 0.1429  plane waves:    1040
 k-point 18 :  -0.4286 0.2857 0.1429  plane waves:    1051
 k-point 19 :  -0.4286 0.4286 0.1429  plane waves:    1041
 k-point 20 :  -0.2857 0.4286 0.1429  plane waves:    1050

 maximum and minimum number of plane-waves per node :       268      245

 maximum number of plane-waves:      1051
 maximum index in each direction:
   IXMAX=    7   IYMAX=    7   IZMAX=    7
   IXMIN=   -7   IYMIN=   -7   IZMIN=   -7

 parallel 3D FFT for wavefunctions:
    minimum data exchange during FFTs selected (reduces bandwidth)
 parallel 3D FFT for charge:
    minimum data exchange during FFTs selected (reduces bandwidth)

 initial charge density was supplied:
 number of electron       8.0000000 magnetization
 keeping initial charge density in first step

 Maximum index for augmentation-charges         1471 (set IRDMAX)

 First call to EWALD:  gamma=   0.514
 Maximum number of real-space cells 3x 3x 3
 Maximum number of reciprocal cells 3x 3x 3

--------------------------------------- Iteration      1(   1)  ---------------------------------------

 BZINTS: Fermi energy:  9.804882;  8.000000 electrons
         Band energy:  23.264717;  BLOECHL correction: -0.126697

 eigenvalue-minimisations  :   320
 total energy-change (2. order) : 0.7557200E+01  (-0.3459266E+03)
 number of electron       8.0000000 magnetization
 augmentation part        8.0000000 magnetization

 Free energy of the ion-electron system (eV)
  alpha Z        PSCENC =         3.28808835
  Ewald energy   TEWEN  =      -226.82787194
  -Hartree energ DENC   =       -15.21769023
  -exchange      EXHF   =         0.00000000
  -V(xc)+E(xc)   XCENC  =       -18.06361232
  PAW double counting   =       825.88581149     -790.90475536
  entropy T*S    EENTRO =         0.00000000
  eigenvalues    EBANDS =        23.26471701
  atomic energy  EATOM  =       206.13251344
  Solvation  Ediel_sol  =         0.00000000
  free energy    TOTEN  =         7.55720044 eV

  energy without entropy =        7.55720044  energy(sigma->0) =        7.55720044

[...]

 eigenvalue-minimisations  :   504
 total energy-change (2. order) :-0.1817946E+02  (-0.1804827E+02)
 number of electron       8.0000000 magnetization
 augmentation part        8.0000000 magnetization

[...]

--------------------------------------- Iteration      1(   6)  ---------------------------------------

[...]

 eigenvalue-minimisations  :   448
 total energy-change (2. order) :-0.3807600E-08  (-0.3807555E-08)
 number of electron       8.0000000 magnetization
 augmentation part        8.0000000 magnetization

 Free energy of the ion-electron system (eV)
  alpha Z        PSCENC =         3.28808835
  Ewald energy   TEWEN  =      -226.82787194
  -Hartree energ DENC   =       -15.21769023
  -exchange      EXHF   =         0.00000000
  -V(xc)+E(xc)   XCENC  =       -18.06361232
  PAW double counting   =       825.88581149     -790.90475536
  entropy T*S    EENTRO =         0.00000000
  eigenvalues    EBANDS =         4.86693610
  atomic energy  EATOM  =       206.13251344
  Solvation  Ediel_sol  =         0.00000000
  free energy    TOTEN  =       -10.84058047 eV

  energy without entropy =      -10.84058047  energy(sigma->0) =      -10.84058047

 average (electrostatic) potential at core
  the test charge radii are     0.9892
  (the norm of the test charge is              1.0000)
       1 -83.4945       2 -83.4945

 E-fermi :   5.6148     XC(G=0):  -9.3194     alpha+bet :-11.7136

 k-point     1 :       0.0000    0.0000    0.0000
  band No.  band energies     occupation
      1      -6.2006      2.00000
      2       5.6043      2.00000
      3       5.6043      2.00000
      4       5.6043      2.00000
      5       8.1592      0.00000
      6       8.1592      0.00000
      7       8.1592      0.00000
      8       8.7208      0.00000

[...]

 k-point    20 :      -0.2857    0.4286    0.1429
  band No.  band energies     occupation
      1      -2.5419      2.00000
      2      -1.4809      2.00000
      3       1.4675      2.00000
      4       2.5823      2.00000
      5       8.3426      0.00000
      6      10.4323      0.00000
      7      11.1731      0.00000
      8      11.3312      0.00000

 soft charge-density along one line, spin component           1
         0         1         2         3         4         5         6         7         8         9
 total charge-density along one line

------------------------ aborting loop because EDIFF is reached ----------------------------------------

 total charge

# of ion       s       p       d       tot
    1        0.750   0.928   0.000   1.678
    2        0.750   0.928   0.000   1.678
tot          1.499   1.857   0.000   3.356

  FORCE on cell =-STRESS in cart. coord.  units (eV):
  Direction    XX          YY          ZZ          XY          YZ          ZX
  Alpha Z     3.28809     3.28809     3.28809
  Ewald     -75.60932   -75.60932   -75.60932    -0.00000    -0.00000    -0.00000
  Hartree     5.07225     5.07225     5.07225     0.00000     0.00000     0.00000
  E(xc)     -25.24101   -25.24101   -25.24101     0.00000     0.00000     0.00000
  Local     -29.54475   -29.54475   -29.54475     0.00001     0.00001     0.00001
  n-local    79.62033    73.92798    78.62596    -1.14877     0.63263     2.24948
  augment   -11.63528   -11.63528   -11.63528    -0.00001    -0.00001    -0.00001
  Kinetic    56.09807    54.41692    58.22289    -0.83822     0.97170     3.52936
  Fock        0.00000     0.00000     0.00000     0.00000     0.00000     0.00000
  Total      -0.03265    -0.03265    -0.03265     0.00000    -0.00000    -0.00000
  in kB      -1.27736    -1.27736    -1.27736     0.00000    -0.00000    -0.00000

 VOLUME and BASIS-vectors are now :
  energy-cutoff  :      500.00
  volume of cell :       40.95
      direct lattice vectors                 reciprocal lattice vectors
     2.735774774  2.735774774  0.000000000     0.182763583  0.182763583 -0.182763583
     0.000000000  2.735774774  2.735774774    -0.182763583  0.182763583  0.182763583
     2.735774774  0.000000000  2.735774774     0.182763583 -0.182763583  0.182763583

  length of vectors
     3.868969789  3.868969789  3.868969789     0.316555812  0.316555812  0.316555812

 FORCES acting on ions
    electron-ion (+dipol)            ewald-force                    non-local-force                 convergence-correction
   0.910E-08 0.566E-08 0.910E-08   0.278E-15 -.148E-14 0.785E-15   -.486E-16 -.659E-16 -.555E-16   -.450E-10 -.450E-10 -.450E-10
   -.910E-08 -.566E-08 -.910E-08   -.660E-15 0.223E-14 -.807E-15   0.486E-16 0.590E-16 0.486E-16   0.450E-10 0.450E-10 0.450E-10
   0.420E-13 -.757E-14 0.959E-13   -.381E-15 0.757E-15 -.217E-16   0.000E+00 -.694E-17 -.694E-17   -.343E-15 0.446E-15 0.330E-15

 POSITION                                       TOTAL-FORCE (eV/Angst)
      0.00000      0.00000      0.00000         0.000000      0.000000      0.000000
      1.36789      1.36789      1.36789        -0.000000     -0.000000     -0.000000
    total drift:                                0.000000     -0.000000      0.000000

  FREE ENERGIE OF THE ION-ELECTRON SYSTEM (eV)
  free  energy   TOTEN  =       -10.84058047 eV

  energy  without entropy=      -10.84058047  energy(sigma->0) =      -10.84058047

 total charge

# of ion       s       p       d       tot
    1        0.750   0.928   0.000   1.678
    2        0.750   0.928   0.000   1.678
tot          1.499   1.857   0.000   3.356

 BZINTS: Fermi energy:  5.614846;  8.000000 electrons
         Band energy:   4.866936;  BLOECHL correction:  0.000000